NAME: test1834
TYPE: TSP
DIMENSION: 11
EDGE_WEIGHT_TYPE: EUC_2D
NODE_COORD_SECTION
1 7.736280230744086 29.47628240854675
2 76.24847602916955 65.98086819175279
3 14.760916403391311 84.53496334222078
4 76.97044743768738 28.784134694268815
5 65.04007666181329 90.75713650024356
6 71.03854330208802 0.38521170658255555
7 59.525948693717176 70.06455517263977
8 16.631389702939913 86.33045360135476
9 61.87189643209441 14.280268478640078
10 94.21447080840176 25.214664496078242
11 26.73316759227051 81.63506746490208
EOF
